solution status: optimal solution found
objective value:                     222053.686040044
d11(0,0)                                            1 	(obj:0)
d11(1,1)                                            1 	(obj:0)
d11(2,3)                                            1 	(obj:0)
d11(2,5)                                            1 	(obj:0)
d11(3,7)                                            1 	(obj:0)
d11(3,8)                                            1 	(obj:0)
d11(3,9)                                            1 	(obj:0)
d11(3,11)                                           1 	(obj:0)
d11(3,12)                                           1 	(obj:0)
d11(3,13)                                           1 	(obj:0)
d11(3,14)                                           1 	(obj:0)
d11(4,15)                                           1 	(obj:0)
d11(4,17)                                           1 	(obj:0)
d11(4,19)                                           1 	(obj:0)
d11(4,21)                                           1 	(obj:0)
d11(4,23)                                           1 	(obj:0)
d11(4,25)                                           1 	(obj:0)
d11(4,27)                                           1 	(obj:0)
d11(4,28)                                           1 	(obj:0)
d11(4,29)                                           1 	(obj:0)
d11(4,30)                                           1 	(obj:0)
d11(5,31)                                           1 	(obj:0)
d11(5,32)                                           1 	(obj:0)
d11(5,33)                                           1 	(obj:0)
d11(5,34)                                           1 	(obj:0)
d11(5,35)                                           1 	(obj:0)
d11(5,36)                                           1 	(obj:0)
d11(5,37)                                           1 	(obj:0)
d11(5,38)                                           1 	(obj:0)
d11(5,39)                                           1 	(obj:0)
d11(5,40)                                           1 	(obj:0)
d11(5,41)                                           1 	(obj:0)
d11(5,42)                                           1 	(obj:0)
d11(5,43)                                           1 	(obj:0)
d11(5,44)                           0.999999999999997 	(obj:0)
d11(5,45)                                           1 	(obj:0)
d11(5,47)                                           1 	(obj:0)
d11(5,48)                                           1 	(obj:0)
d11(5,49)                                           1 	(obj:0)
d11(5,50)                           0.999999999999997 	(obj:0)
d11(5,51)                                           1 	(obj:0)
d11(5,52)                                           1 	(obj:0)
d11(5,53)                                           1 	(obj:0)
d11(5,54)                                           1 	(obj:0)
d11(5,55)                                           1 	(obj:0)
d11(5,56)                                           1 	(obj:0)
d11(5,57)                                           1 	(obj:0)
d11(5,59)                                           1 	(obj:0)
d11(5,60)                                           1 	(obj:0)
d11(5,61)                                           1 	(obj:0)
d11(5,62)                                           1 	(obj:0)
d11(6,63)                                           1 	(obj:0)
d11(6,65)                                           1 	(obj:0)
d11(6,67)                                           1 	(obj:0)
d11(6,69)                                           1 	(obj:0)
d11(6,71)                                           1 	(obj:0)
d11(6,73)                                           1 	(obj:0)
d11(6,75)                                           1 	(obj:0)
d11(6,79)                                           1 	(obj:0)
d11(6,81)                                           1 	(obj:0)
d11(6,83)                                           1 	(obj:0)
d11(6,85)                                           1 	(obj:0)
d11(6,87)                                           1 	(obj:0)
d11(6,91)                                           1 	(obj:0)
d11(6,93)                                           1 	(obj:0)
d11(6,95)                                           1 	(obj:0)
d11(6,97)                                           1 	(obj:0)
d11(6,99)                                           1 	(obj:0)
d11(6,103)                                          1 	(obj:0)
d11(6,107)                                          1 	(obj:0)
d11(6,109)                                          1 	(obj:0)
d11(6,111)                                          1 	(obj:0)
d11(6,113)                                          1 	(obj:0)
d11(6,115)                                          1 	(obj:0)
d11(6,119)                                          1 	(obj:0)
d11(6,121)                                          1 	(obj:0)
d11(6,125)                                          1 	(obj:0)
d12(1,2)                                            1 	(obj:0)
d12(2,4)                                            1 	(obj:0)
d12(2,6)                                            1 	(obj:0)
d12(6,64)                                           1 	(obj:0)
d12(6,66)                                           1 	(obj:0)
d12(6,68)                                           1 	(obj:0)
d12(6,70)                                           1 	(obj:0)
d12(6,72)                                           1 	(obj:0)
d12(6,74)                                           1 	(obj:0)
d12(6,76)                                           1 	(obj:0)
d12(6,78)                                           1 	(obj:0)
d12(6,80)                                           1 	(obj:0)
d12(6,82)                                           1 	(obj:0)
d12(6,84)                                           1 	(obj:0)
d12(6,86)                                           1 	(obj:0)
d12(6,88)                                           1 	(obj:0)
d12(6,90)                                           1 	(obj:0)
d12(6,92)                                           1 	(obj:0)
d12(6,94)                                           1 	(obj:0)
d12(6,96)                                           1 	(obj:0)
d12(6,98)                                           1 	(obj:0)
d12(6,100)                                          1 	(obj:0)
d12(6,102)                                          1 	(obj:0)
d12(6,104)                                          1 	(obj:0)
d12(6,106)                                          1 	(obj:0)
d12(6,108)                                          1 	(obj:0)
d12(6,110)                                          1 	(obj:0)
d12(6,112)                                          1 	(obj:0)
d12(6,114)                                          1 	(obj:0)
d12(6,116)                                          1 	(obj:0)
d12(6,118)                                          1 	(obj:0)
d12(6,120)                                          1 	(obj:0)
d12(6,122)                                          1 	(obj:0)
d12(6,124)                                          1 	(obj:0)
d12(6,126)                                          1 	(obj:0)
d21(3,7)                                            1 	(obj:0)
d21(4,15)                                           1 	(obj:0)
d21(4,16)                                           1 	(obj:0)
d21(4,17)                                           1 	(obj:0)
d21(4,19)                                           1 	(obj:0)
d21(4,23)                                           1 	(obj:0)
d21(5,31)                                           1 	(obj:0)
d21(5,32)                                           1 	(obj:0)
d21(5,33)                                           1 	(obj:0)
d21(5,34)                                           1 	(obj:0)
d21(5,35)                                           1 	(obj:0)
d21(5,36)                                           1 	(obj:0)
d21(5,37)                                           1 	(obj:0)
d21(5,39)                                           1 	(obj:0)
d21(5,40)                                           1 	(obj:0)
d21(5,41)                                           1 	(obj:0)
d21(5,43)                                           1 	(obj:0)
d21(5,47)                                           1 	(obj:0)
d21(5,48)                                           1 	(obj:0)
d21(5,49)                                           1 	(obj:0)
d21(5,51)                                           1 	(obj:0)
d21(5,55)                                           1 	(obj:0)
d21(6,63)                                           1 	(obj:0)
d21(6,64)                                           1 	(obj:0)
d21(6,65)                                           1 	(obj:0)
d21(6,66)                                           1 	(obj:0)
d21(6,67)                                           1 	(obj:0)
d21(6,68)                                           1 	(obj:0)
d21(6,69)                                           1 	(obj:0)
d21(6,70)                                           1 	(obj:0)
d21(6,71)                                           1 	(obj:0)
d21(6,72)                                           1 	(obj:0)
d21(6,73)                                           1 	(obj:0)
d21(6,74)                                           1 	(obj:0)
d21(6,75)                                           1 	(obj:0)
d21(6,76)                                           1 	(obj:0)
d21(6,79)                                           1 	(obj:0)
d21(6,80)                                           1 	(obj:0)
d21(6,81)                                           1 	(obj:0)
d21(6,82)                                           1 	(obj:0)
d21(6,83)                                           1 	(obj:0)
d21(6,84)                                           1 	(obj:0)
d21(6,85)                                           1 	(obj:0)
d21(6,87)                                           1 	(obj:0)
d21(6,88)                                           1 	(obj:0)
d21(6,91)                                           1 	(obj:0)
d21(6,95)                                           1 	(obj:0)
d21(6,96)                                           1 	(obj:0)
d21(6,97)                                           1 	(obj:0)
d21(6,98)                                           1 	(obj:0)
d21(6,99)                                           1 	(obj:0)
d21(6,100)                                          1 	(obj:0)
d21(6,103)                                          1 	(obj:0)
d21(6,104)                                          1 	(obj:0)
d21(6,107)                                          1 	(obj:0)
d21(6,111)                                          1 	(obj:0)
d21(6,112)                                          1 	(obj:0)
d21(6,113)                                          1 	(obj:0)
d21(6,115)                                          1 	(obj:0)
d21(6,119)                                          1 	(obj:0)
y2(6,100)                            1385.48851144891 	(obj:0)
y2(6,102)                            1385.48851144891 	(obj:0)
y2(6,104)                            1385.48851144891 	(obj:0)
y2(6,106)                            1385.48851144891 	(obj:0)
y2(6,108)                            1385.48851144891 	(obj:0)
y2(6,110)                            1385.48851144891 	(obj:0)
y2(6,112)                            1385.48851144891 	(obj:0)
y2(6,114)                            1385.48851144891 	(obj:0)
y2(6,116)                            1385.48851144891 	(obj:0)
y2(6,118)                            1385.48851144891 	(obj:0)
y2(6,120)                            1385.48851144891 	(obj:0)
y2(6,122)                            1385.48851144891 	(obj:0)
y2(6,124)                            1385.48851144891 	(obj:0)
y2(6,126)                            1385.48851144891 	(obj:0)
STE(1,1)                             3477.92440837515 	(obj:0)
STE(0,0)                                         4725 	(obj:0)
STE(1,2)                             4889.82549051317 	(obj:0)
STE(2,3)                             2230.84881675083 	(obj:0)
STE(2,4)                             3642.74989888879 	(obj:0)
STE(2,5)                             3642.74989888885 	(obj:0)
STE(2,6)                             5054.65098102681 	(obj:0)
STE(3,7)                             194.598917861981 	(obj:0)
STE(3,8)                              1852.8488167508 	(obj:0)
STE(3,9)                             1606.49999999994 	(obj:0)
STE(3,10)                            3264.74989888879 	(obj:0)
STE(3,11)                                      1606.5 	(obj:0)
STE(3,12)                            3264.74989888882 	(obj:0)
STE(3,13)                            3018.40108213796 	(obj:0)
STE(3,14)                            4676.65098102678 	(obj:0)
STE(4,15)                           -1841.65098102681 	(obj:0)
STE(4,16)                           -183.401082138019 	(obj:0)
STE(4,17)                           -183.401082137991 	(obj:0)
STE(4,18)                             1474.8488167508 	(obj:0)
STE(4,19)                           -429.749898888846 	(obj:0)
STE(4,20)                            1228.49999999994 	(obj:0)
STE(4,21)                                      1228.5 	(obj:0)
STE(4,22)                            2886.74989888879 	(obj:0)
STE(4,23)                           -429.749898888789 	(obj:0)
STE(4,24)                                      1228.5 	(obj:0)
STE(4,25)                            1228.50000000003 	(obj:0)
STE(4,26)                            2886.74989888882 	(obj:0)
STE(4,27)                            982.151183249174 	(obj:0)
STE(4,28)                            2640.40108213799 	(obj:0)
STE(4,29)                            2640.40108213799 	(obj:0)
STE(4,30)                            4298.65098102678 	(obj:0)
STE(5,31)                           -3877.90087991565 	(obj:0)
STE(5,32)                           -2219.65098102681 	(obj:0)
STE(5,33)                           -2219.65098102686 	(obj:0)
STE(5,34)                           -561.401082138047 	(obj:0)
STE(5,35)                           -2219.65098102684 	(obj:0)
STE(5,36)                           -561.401082138019 	(obj:0)
STE(5,37)                           -561.401082138047 	(obj:0)
STE(5,38)                            1096.84881675077 	(obj:0)
STE(5,39)                           -2465.99979777769 	(obj:0)
STE(5,40)                           -807.749898888874 	(obj:0)
STE(5,41)                           -807.749898888903 	(obj:0)
STE(5,42)                            850.499999999915 	(obj:0)
STE(5,43)                           -807.749898888846 	(obj:0)
STE(5,44)                                       850.5 	(obj:0)
STE(5,45)                            850.499999999943 	(obj:0)
STE(5,46)                            2508.74989888879 	(obj:0)
STE(5,47)                           -2465.99979777763 	(obj:0)
STE(5,48)                           -807.749898888817 	(obj:0)
STE(5,49)                           -807.749898888846 	(obj:0)
STE(5,50)                                       850.5 	(obj:0)
STE(5,51)                           -807.749898888818 	(obj:0)
STE(5,52)                                       850.5 	(obj:0)
STE(5,53)                            850.499999999971 	(obj:0)
STE(5,54)                            2508.74989888879 	(obj:0)
STE(5,55)                           -1054.09871563967 	(obj:0)
STE(5,56)                            604.151183249146 	(obj:0)
STE(5,57)                            604.151183249145 	(obj:0)
STE(5,58)                            2262.40108213799 	(obj:0)
STE(5,59)                            604.151183249146 	(obj:0)
STE(5,60)                            2262.40108213796 	(obj:0)
STE(5,61)                            2262.40108213794 	(obj:0)
STE(5,62)                            3920.65098102675 	(obj:0)
STE(6,63)                           -4255.90087991565 	(obj:0)
STE(6,64)                           -2939.68679403919 	(obj:0)
STE(6,65)                           -2597.65098102681 	(obj:0)
STE(6,66)                           -1281.43689515034 	(obj:0)
STE(6,67)                           -2597.65098102686 	(obj:0)
STE(6,68)                            -1281.4368951504 	(obj:0)
STE(6,69)                           -939.401082138047 	(obj:0)
STE(6,70)                             376.81300373842 	(obj:0)
STE(6,71)                           -2597.65098102684 	(obj:0)
STE(6,72)                           -1281.43689515037 	(obj:0)
STE(6,73)                           -939.401082138019 	(obj:0)
STE(6,74)                            376.813003738448 	(obj:0)
STE(6,75)                           -939.401082138047 	(obj:0)
STE(6,76)                             376.81300373842 	(obj:0)
STE(6,77)                             718.84881675077 	(obj:0)
STE(6,78)                            2035.06290262724 	(obj:0)
STE(6,79)                           -2843.99979777769 	(obj:0)
STE(6,80)                           -1527.78571190122 	(obj:0)
STE(6,81)                           -1185.74989888887 	(obj:0)
STE(6,82)                            130.464186987593 	(obj:0)
STE(6,83)                            -1185.7498988889 	(obj:0)
STE(6,84)                            130.464186987565 	(obj:0)
STE(6,85)                            472.499999999915 	(obj:0)
STE(6,86)                            1788.71408587638 	(obj:0)
STE(6,87)                           -1185.74989888885 	(obj:0)
STE(6,88)                            130.464186987622 	(obj:0)
STE(6,89)                                       472.5 	(obj:0)
STE(6,90)                            1788.71408587647 	(obj:0)
STE(6,91)                            472.499999999943 	(obj:0)
STE(6,92)                            1788.71408587641 	(obj:0)
STE(6,93)                            2130.74989888879 	(obj:0)
STE(6,94)                            3446.96398476526 	(obj:0)
STE(6,95)                           -2843.99979777763 	(obj:0)
STE(6,96)                           -1527.78571190117 	(obj:0)
STE(6,97)                           -1185.74989888882 	(obj:0)
STE(6,98)                             130.46418698765 	(obj:0)
STE(6,99)                           -1185.74989888885 	(obj:0)
STE(6,100)                           130.464186987622 	(obj:0)
STE(6,101)                                      472.5 	(obj:0)
STE(6,102)                           1788.71408587647 	(obj:0)
STE(6,103)                          -1185.74989888882 	(obj:0)
STE(6,104)                            130.46418698765 	(obj:0)
STE(6,105)                                      472.5 	(obj:0)
STE(6,106)                           1788.71408587647 	(obj:0)
STE(6,107)                           472.499999999971 	(obj:0)
STE(6,108)                           1788.71408587644 	(obj:0)
STE(6,109)                           2130.74989888879 	(obj:0)
STE(6,110)                           3446.96398476526 	(obj:0)
STE(6,111)                          -1432.09871563967 	(obj:0)
STE(6,112)                          -115.884629763204 	(obj:0)
STE(6,113)                           226.151183249146 	(obj:0)
STE(6,114)                           1542.36526912561 	(obj:0)
STE(6,115)                           226.151183249145 	(obj:0)
STE(6,116)                           1542.36526912561 	(obj:0)
STE(6,117)                           1884.40108213799 	(obj:0)
STE(6,118)                           3200.61516801446 	(obj:0)
STE(6,119)                           226.151183249146 	(obj:0)
STE(6,120)                           1542.36526912561 	(obj:0)
STE(6,121)                           1884.40108213796 	(obj:0)
STE(6,122)                           3200.61516801443 	(obj:0)
STE(6,123)                           1884.40108213794 	(obj:0)
STE(6,124)                            3200.6151680144 	(obj:0)
STE(6,125)                           3542.65098102675 	(obj:0)
STE(6,126)                           4858.86506690322 	(obj:0)
BG(5)                                723.522421037851 	(obj:10)
WB(1)                                3259.55177567504 	(obj:0)
AVE(1)                               3259.55177567504 	(obj:0)
AVE(2)                               3259.55588804169 	(obj:0)
AVE(3)                               3579.36165209166 	(obj:0)
AVE(4)                               3579.36576445831 	(obj:0)
AVE(5)                               3472.77007794174 	(obj:0)
WB(6)                                372.951956291251 	(obj:0)
AVE(6)                                3046.3618950668 	(obj:0)
WG(2)                                3259.55588804169 	(obj:10)
WG(3)                                3579.36165209166 	(obj:10)
WG(4)                                3579.36576445831 	(obj:10)
WG(5)                                3472.77007794174 	(obj:10)
WG(6)                                2673.40993877555 	(obj:10)
BG(1)                                3471.54058414531 	(obj:10)
BG(2)                                211.984696103136 	(obj:10)
BG(3)                                616.930846887932 	(obj:10)
BG(4)                                616.926734521229 	(obj:10)
y1(1,1)                              782.168032462365 	(obj:0)
y1(2,3)                              782.168032461891 	(obj:0)
y1(2,5)                              782.168032461891 	(obj:0)
y1(3,7)                              1492.42490899996 	(obj:0)
y1(3,9)                              1492.42490899996 	(obj:0)
y1(3,11)                             1492.42490899996 	(obj:0)
y1(3,13)                             1492.42490899996 	(obj:0)
y1(4,15)                             1492.42490899991 	(obj:0)
y1(4,17)                             1492.42490899991 	(obj:0)
y1(4,19)                             1492.42490899991 	(obj:0)
y1(4,21)                             1492.42490899991 	(obj:0)
y1(4,23)                             1492.42490899991 	(obj:0)
y1(4,25)                             1492.42490899991 	(obj:0)
y1(4,27)                             1492.42490899991 	(obj:0)
y1(4,29)                             1492.42490899991 	(obj:0)
y1(5,31)                             1492.42490899996 	(obj:0)
y1(5,33)                             1492.42490899996 	(obj:0)
y1(5,35)                             1492.42490899996 	(obj:0)
y1(5,37)                             1492.42490899996 	(obj:0)
y1(5,39)                             1492.42490899996 	(obj:0)
y1(5,41)                             1492.42490899996 	(obj:0)
y1(5,43)                             1492.42490899996 	(obj:0)
y1(5,45)                             1492.42490899996 	(obj:0)
y1(5,47)                             1492.42490899996 	(obj:0)
y1(5,49)                             1492.42490899996 	(obj:0)
y1(5,51)                             1492.42490899996 	(obj:0)
y1(5,53)                             1492.42490899996 	(obj:0)
y1(5,55)                             1492.42490899996 	(obj:0)
y1(5,57)                             1492.42490899996 	(obj:0)
y1(5,59)                             1492.42490899996 	(obj:0)
y1(5,61)                             1492.42490899996 	(obj:0)
y2(1,2)                              571.395253171758 	(obj:0)
y2(2,4)                              571.395253172252 	(obj:0)
y2(2,6)                              571.395253172252 	(obj:0)
y2(6,64)                             1385.48851144891 	(obj:0)
y2(6,66)                             1385.48851144891 	(obj:0)
y2(6,68)                             1385.48851144891 	(obj:0)
y2(6,70)                             1385.48851144891 	(obj:0)
y2(6,72)                             1385.48851144891 	(obj:0)
y2(6,74)                             1385.48851144891 	(obj:0)
y2(6,76)                             1385.48851144891 	(obj:0)
y2(6,78)                             1385.48851144891 	(obj:0)
y2(6,80)                             1385.48851144891 	(obj:0)
y2(6,82)                             1385.48851144891 	(obj:0)
y2(6,84)                             1385.48851144891 	(obj:0)
y2(6,86)                             1385.48851144891 	(obj:0)
y2(6,88)                             1385.48851144891 	(obj:0)
y2(6,90)                             1385.48851144891 	(obj:0)
y2(6,92)                             1385.48851144891 	(obj:0)
y2(6,94)                             1385.48851144891 	(obj:0)
y2(6,96)                             1385.48851144891 	(obj:0)
y2(6,98)                             1385.48851144891 	(obj:0)
